c Instancia generada aleatoriamente
p edge 50 138
e 1 3
e 1 8
e 1 10
e 1 28
e 1 31
e 1 37
e 1 43
e 1 48
e 2 3
e 2 8
e 2 9
e 2 25
e 2 34
e 2 47
e 3 7
e 3 9
e 3 10
e 3 28
e 3 33
e 3 44
e 3 45
e 4 5
e 4 17
e 4 18
e 4 26
e 4 47
e 5 11
e 5 12
e 5 32
e 5 35
e 5 39
e 6 9
e 6 19
e 6 38
e 7 14
e 7 16
e 7 22
e 7 26
e 8 17
e 8 27
e 8 34
e 8 35
e 8 42
e 9 27
e 9 35
e 9 40
e 9 50
e 10 22
e 10 30
e 10 49
e 11 35
e 11 36
e 11 39
e 11 40
e 11 47
e 11 48
e 12 18
e 12 31
e 12 50
e 13 32
e 13 34
e 13 41
e 13 47
e 14 43
e 14 47
e 15 19
e 15 27
e 15 32
e 15 35
e 15 48
e 16 22
e 16 25
e 16 33
e 17 24
e 18 23
e 18 33
e 18 34
e 18 40
e 19 27
e 20 39
e 20 46
e 20 50
e 21 23
e 21 28
e 21 30
e 21 35
e 22 23
e 22 29
e 22 34
e 22 38
e 22 41
e 22 46
e 23 39
e 23 40
e 23 41
e 24 27
e 24 44
e 25 30
e 25 35
e 25 44
e 25 50
e 26 34
e 26 35
e 26 36
e 27 40
e 28 30
e 28 35
e 28 40
e 29 36
e 29 40
e 29 43
e 29 46
e 30 39
e 30 41
e 32 37
e 32 38
e 32 45
e 33 39
e 34 43
e 35 37
e 35 44
e 35 46
e 36 47
e 36 48
e 37 46
e 37 48
e 38 46
e 38 48
e 38 49
e 41 49
e 42 47
e 43 44
e 43 47
e 43 49
e 44 45
e 45 46
e 47 48
e 48 49
